unsat
(:SPACER-concretize                   74
 :SPACER-conj                         12
 :SPACER-expand-pob-undef             32
 :SPACER-inductive-gen                141
 :SPACER-inductive-gen-weaken-fail    311
 :SPACER-inductive-gen-weaken-success 4
 :SPACER-inductive-level              5
 :SPACER-max-depth                    10
 :SPACER-max-query-lvl                10
 :SPACER-non-local-gen                11
 :SPACER-num-active-lemmas            45
 :SPACER-num-ctp-blocked              57
 :SPACER-num-invariants               67
 :SPACER-num-is_invariant             346
 :SPACER-num-lemma-jumped             7
 :SPACER-num-lemmas                   151
 :SPACER-num-non-lin                  23
 :SPACER-num-pobs                     161
 :SPACER-num-propagations             124
 :SPACER-num-queries                  120
 :SPACER-num-reach-queries            60
 :SPACER-num-reuse-reach-facts        60
 :SPACER-subsume-failed               4
 :SPACER-subsume-pob                  7
 :SPACER-subsume-success              6
 :added-eqs                           285550
 :arith-assert-diseq                  39972
 :arith-assert-lower                  215694
 :arith-assert-upper                  159820
 :arith-bound-prop                    11922
 :arith-branch-var                    1528
 :arith-conflicts                     792
 :arith-eq-adapter                    32710
 :arith-fixed-eqs                     77222
 :arith-gcd-conflicts                 180
 :arith-gcd-tests                     128406
 :arith-gomory-cuts                   1198
 :arith-ineq-splits                   1528
 :arith-num-rows                      512
 :arith-offset-eqs                    41744
 :arith-patches                       2996
 :arith-patches_succ                  34
 :arith-pivots                        14600
 :arith-row-summations                469560
 :arith-tableau-max-columns           804
 :arith-tableau-max-rows              512
 :conflicts                           3670
 :decisions                           444134
 :del-clause                          96228
 :final-checks                        4690
 :iuc_solver.num_proxies              494
 :max-memory                          46.42
 :memory                              44.76
 :minimized-lits                      3520
 :mk-bool-var                         86350
 :mk-clause                           108836
 :num-allocs                          3494134232
 :num-checks                          2970
 :pool_solver.checks                  1485
 :pool_solver.checks.sat              259
 :pool_solver.checks.undef            516
 :propagations                        1009804
 :rlimit-count                        12459656
 :time                                4.34
 :time.iuc_solver.get_iuc             0.20
 :time.iuc_solver.get_iuc.hyp_reduce1 0.07
 :time.iuc_solver.get_iuc.hyp_reduce2 0.10
 :time.iuc_solver.get_iuc.learn_core  0.03
 :time.pool_solver.proof              0.04
 :time.pool_solver.smt.total          3.38
 :time.pool_solver.smt.total.sat      1.82
 :time.pool_solver.smt.total.undef    1.14
 :time.spacer.ctp                     0.01
 :time.spacer.init_rules              0.00
 :time.spacer.mbp                     0.03
 :time.spacer.solve                   4.29
 :time.spacer.solve.propagate         0.89
 :time.spacer.solve.reach             3.40
 :time.spacer.solve.reach.children    0.06
 :time.spacer.solve.reach.cluster     0.18
 :time.spacer.solve.reach.gen.global  0.14
 :time.spacer.solve.reach.gen.ind     1.77
 :time.spacer.solve.reach.is-reach    0.09)
(:max-memory   46.42
 :memory       44.76
 :num-allocs   3494134232
 :rlimit-count 12459656
 :time         4.34
 :total-time   4.36)
